h=8;
w=8;
left=[0, 9, 0, 20, 28, 0, 21, 8];
right=[0, 15, 20, 17, 12, 0, 9, 24];
top=[15, 11, 13, 12, 0, 26, 22, 0];
down=[0, 16, 20, 15, 20, 12, 0, 11];
b=[|0,0,0,4,0,0,2,6|1,8,0,0,0,6,5,0|0,6,0,3,0,1,0,5|3,0,5,0,0,0,1,0|0,5,6,1,0,0,3,4|0,2,0,0,0,3,4,0|6,7,0,5,0,2,0,0|8,1,0,0,0,0,6,0|]